
******************************************************************************
This program contains Ipopt, a library for large-scale nonlinear optimization.
 Ipopt is released as open source code under the Eclipse Public License (EPL).
         For more information visit https://github.com/coin-or/Ipopt
******************************************************************************

This is Ipopt version 3.14.14, running with linear solver MUMPS 5.6.2.

Number of nonzeros in equality constraint Jacobian...:   365056
Number of nonzeros in inequality constraint Jacobian.:    14080
Number of nonzeros in Lagrangian Hessian.............:    42240

Total number of variables............................:   112750
                     variables with only lower bounds:    56320
                variables with lower and upper bounds:      110
                     variables with only upper bounds:        0
Total number of equality constraints.................:   112640
Total number of inequality constraints...............:    14080
        inequality constraints with only lower bounds:        0
   inequality constraints with lower and upper bounds:        0
        inequality constraints with only upper bounds:    14080

iter    objective    inf_pr   inf_du lg(mu)  ||d||  lg(rg) alpha_du alpha_pr  ls
   0  4.0000000e+01 9.90e-01 2.01e+00  -1.0 0.00e+00    -  0.00e+00 0.00e+00   0
   1  3.8651982e+01 9.49e-01 8.28e+00  -1.0 4.77e+00    -  1.10e-02 4.15e-02f  1
   2  3.9218393e+01 9.38e-01 4.97e+00  -1.0 4.27e+00    -  8.33e-02 1.18e-02f  1
   3  6.0756003e+01 8.69e-01 5.22e+00  -1.0 5.08e+00    -  6.41e-02 7.27e-02f  1
   4  7.3588990e+01 7.26e-01 1.75e+01  -1.0 1.24e+00    -  3.21e-01 1.65e-01f  1
   5  6.7635339e+01 5.93e-01 1.96e+01  -1.0 1.54e+00    -  2.39e-01 1.83e-01f  1
   6  6.4620045e+01 5.69e-01 1.77e+01  -1.0 4.00e+00    -  5.88e-02 3.94e-02f  1
   7  6.4472643e+01 5.68e-01 3.59e+01  -1.0 4.98e+00    -  4.60e-04 2.51e-03f  1
   8  6.4350524e+01 5.67e-01 3.71e+01  -1.0 4.95e+00    -  1.35e-03 2.16e-03f  1
   9  6.3976750e+01 5.63e-01 3.55e+01  -1.0 7.61e+00    -  4.50e-03 6.75e-03f  1
iter    objective    inf_pr   inf_du lg(mu)  ||d||  lg(rg) alpha_du alpha_pr  ls
  10  6.3225854e+01 5.55e-01 5.09e+01  -1.0 8.11e+00    -  3.47e-03 1.45e-02f  1
  11  6.3195192e+01 5.54e-01 1.79e+02  -1.0 4.50e+00    -  2.54e-03 6.13e-04f  1
  12  6.1822177e+01 5.39e-01 6.93e+02  -1.0 7.12e+00    -  3.79e-03 2.73e-02f  1
  13  6.1795895e+01 5.39e-01 6.69e+02  -1.0 3.55e+00    -  4.48e-03 4.98e-04f  1
  14  5.8970779e+01 5.10e-01 9.55e+02  -1.0 5.81e+00    -  2.59e-03 5.32e-02f  1
  15  5.8931342e+01 5.10e-01 9.35e+02  -1.0 3.89e+00    -  1.02e-02 6.96e-04f  1
  16  5.5323276e+01 4.78e-01 1.22e+03  -1.0 4.19e+00    -  2.80e-03 6.30e-02f  1
  17  5.2824168e+01 4.55e-01 9.68e+02  -1.0 3.50e+00    -  1.11e-01 4.83e-02f  1
  18  4.8590340e+01 4.14e-01 8.06e+02  -1.0 2.39e+00    -  6.09e-03 8.86e-02f  1
  19  4.6926710e+01 3.85e-01 8.19e+02  -1.0 1.86e+00    -  2.63e-01 7.16e-02f  1
iter    objective    inf_pr   inf_du lg(mu)  ||d||  lg(rg) alpha_du alpha_pr  ls
  20  4.5385885e+01 3.19e-01 7.08e+02  -1.0 1.33e+00    -  9.41e-02 1.70e-01f  1
  21  4.7324371e+01 2.29e-01 4.37e+02  -1.0 5.04e-01    -  1.00e+00 2.83e-01f  1
  22  5.7782990e+01 2.29e-03 2.36e+02  -1.0 2.89e-01    -  7.75e-01 9.90e-01h  1
  23  5.7382538e+01 1.69e-03 1.86e+02  -1.0 6.65e-01    -  2.99e-01 2.61e-01h  1
  24  5.7585426e+01 1.46e-03 8.87e+02  -1.0 9.74e-01    -  2.68e-01 1.40e-01h  1
  25  5.7785588e+01 1.42e-03 1.17e+03  -1.0 8.97e-01    -  6.97e-02 2.51e-02h  1
  26  5.8528230e+01 1.30e-03 4.13e+03  -1.0 1.93e+00    -  1.76e-02 8.47e-02h  1
  27  5.8527440e+01 1.29e-03 2.28e+04  -1.0 6.68e-01   2.0 9.09e-02 3.69e-03h  1
  28  5.8749061e+01 1.16e-03 1.28e+04  -1.0 6.38e-01   1.5 4.68e-02 1.03e-01h  1
  29  5.8760683e+01 1.16e-03 1.49e+04  -1.0 1.31e+00   1.0 3.86e-02 3.29e-03h  1
iter    objective    inf_pr   inf_du lg(mu)  ||d||  lg(rg) alpha_du alpha_pr  ls
  30  5.8858535e+01 1.11e-03 9.46e+03  -1.0 1.02e+00   1.5 2.38e-02 4.31e-02h  1
  31  5.8966951e+01 1.03e-03 1.03e+04  -1.0 6.30e-01   1.9 1.23e-01 6.76e-02h  1
  32  5.9056272e+01 1.01e-03 8.35e+03  -1.0 7.06e-01   1.4 7.77e-02 2.46e-02h  1
  33  5.9070575e+01 9.99e-04 3.08e+04  -1.0 1.72e+00   1.8 2.43e-02 8.48e-03h  1
  34  5.9189920e+01 9.72e-04 2.45e+04  -1.0 1.99e+00   1.4 8.84e-03 2.66e-02h  1
  35  5.9211313e+01 9.63e-04 2.05e+04  -1.0 7.14e-01   1.8 6.01e-03 9.31e-03h  1
  36  5.9390482e+01 9.29e-04 1.58e+04  -1.0 3.20e+00   1.3 1.16e-01 3.55e-02h  1
  37  5.9495272e+01 8.97e-04 1.38e+04  -1.0 6.30e-01   1.7 5.75e-02 3.46e-02h  1
  38  5.9501747e+01 8.93e-04 3.16e+04  -1.0 7.74e-01   2.2 1.19e-02 4.31e-03h  1
  39  5.9605658e+01 8.68e-04 2.17e+04  -1.0 1.88e+00   1.7 1.14e-02 2.76e-02h  1
iter    objective    inf_pr   inf_du lg(mu)  ||d||  lg(rg) alpha_du alpha_pr  ls
  40  5.9853081e+01 7.89e-04 9.15e+03  -1.0 6.83e-01   2.1 4.94e-03 9.13e-02h  1
  41  5.9860300e+01 7.87e-04 5.58e+04  -1.0 2.26e+00   1.6 3.79e-02 2.10e-03h  1
  42  5.9975759e+01 7.62e-04 2.91e+04  -1.0 1.40e+00   2.1 4.92e-03 3.25e-02h  1
  43  6.0319245e+01 7.11e-04 2.49e+04  -1.0 6.65e-01   1.6 1.31e-01 6.71e-02h  1
  44  6.0325764e+01 7.09e-04 4.27e+04  -1.0 1.58e+00   2.0 2.15e-02 1.99e-03h  1
  45  6.0469123e+01 6.91e-04 2.88e+04  -1.0 2.31e+00   1.5 3.32e-03 2.58e-02h  1
  46  6.0477781e+01 6.89e-04 3.06e+04  -1.0 6.35e-01   2.0 3.59e-03 2.25e-03h  1
  47  6.0830566e+01 6.47e-04 2.89e+04  -1.0 1.39e+00   1.5 3.21e-02 6.12e-02h  1
  48  6.0857773e+01 6.43e-04 2.11e+04  -1.0 5.44e-01   1.9 2.87e-02 6.84e-03h  1
  49  6.0867297e+01 6.41e-04 2.78e+04  -1.0 7.15e-01   2.3 6.58e-03 3.26e-03h  1
iter    objective    inf_pr   inf_du lg(mu)  ||d||  lg(rg) alpha_du alpha_pr  ls
  50  6.1017455e+01 6.20e-04 2.20e+04  -1.0 1.87e+00   1.9 5.03e-03 3.15e-02h  1
  51  6.1307277e+01 5.74e-04 2.01e+04  -1.0 5.92e-01   2.3 3.29e-02 7.42e-02h  1
  52  6.1312663e+01 5.74e-04 3.83e+04  -1.0 1.41e+00   1.8 2.39e-02 1.29e-03h  1
  53  6.1476050e+01 5.53e-04 2.02e+04  -1.0 1.59e+00   2.2 8.25e-03 3.62e-02h  1
  54  6.1483416e+01 5.52e-04 2.02e+04  -1.0 7.23e-01   1.8 4.76e-03 1.50e-03h  1
  55  6.1668679e+01 5.29e-04 1.94e+04  -1.0 5.18e-01   2.2 2.12e-02 4.13e-02h  1
  56  6.1784831e+01 5.18e-04 1.91e+04  -1.0 5.70e-01   1.7 4.51e-02 2.17e-02h  1
  57  6.1842446e+01 5.11e-04 1.88e+04  -1.0 4.70e-01   2.1 1.94e-02 1.30e-02h  1
  58  6.1884609e+01 5.07e-04 1.87e+04  -1.0 1.80e+00   1.7 6.14e-03 8.79e-03h  1
  59  6.1971250e+01 4.98e-04 1.85e+04  -1.0 2.02e+00   2.1 2.22e-02 1.74e-02h  1
iter    objective    inf_pr   inf_du lg(mu)  ||d||  lg(rg) alpha_du alpha_pr  ls
  60  6.2277484e+01 4.73e-04 1.73e+04  -1.0 5.53e-01   1.6 2.93e-03 5.03e-02h  1
  61  6.2288906e+01 4.71e-04 1.72e+04  -1.0 4.57e-01   2.0 8.53e-03 2.72e-03h  1
  62  6.2388326e+01 4.63e-04 1.70e+04  -1.0 5.60e-01   1.6 1.98e-02 1.70e-02h  1
  63  6.2404816e+01 4.62e-04 1.69e+04  -1.0 1.60e+00   2.0 8.02e-03 3.37e-03h  1
  64  6.2508961e+01 4.54e-04 3.15e+04  -1.0 2.81e+00   1.5 5.26e-02 1.59e-02h  1
  65  6.2921236e+01 4.19e-04 2.05e+04  -1.0 5.34e-01   1.9 2.69e-03 7.74e-02h  1
  66  6.2927036e+01 4.19e-04 2.12e+04  -1.0 4.67e-01   2.4 2.04e-02 1.29e-03h  1
  67  6.3068630e+01 4.08e-04 1.99e+04  -1.0 2.11e+00   1.9 1.89e-02 2.53e-02h  1
  68  6.3173076e+01 3.99e-04 1.94e+04  -1.0 4.42e-01   2.3 6.05e-02 2.13e-02h  1
  69  6.3193830e+01 3.97e-04 1.94e+04  -1.0 5.01e-01   1.8 3.00e-03 5.07e-03h  1
iter    objective    inf_pr   inf_du lg(mu)  ||d||  lg(rg) alpha_du alpha_pr  ls
  70  6.3493573e+01 3.74e-04 1.82e+04  -1.0 4.42e-01   2.3 4.20e-02 5.99e-02h  1
  71  6.3524627e+01 3.72e-04 1.79e+04  -1.0 1.97e+00   1.8 1.66e-02 5.20e-03h  1
  72  6.3613238e+01 3.66e-04 1.77e+04  -1.0 1.41e+00   2.2 1.34e-02 1.66e-02h  1
  73  6.3767261e+01 3.57e-04 1.68e+04  -1.0 1.10e+00   1.7 4.14e-02 2.38e-02h  1
  74  6.3904835e+01 3.47e-04 1.62e+04  -1.0 4.39e-01   2.2 5.55e-03 2.64e-02h  1
  75  6.3914103e+01 3.47e-04 1.62e+04  -1.0 5.34e-01   1.7 5.70e-03 2.46e-03h  1
  76  6.4124884e+01 3.33e-04 1.56e+04  -1.0 4.15e-01   2.1 1.09e-01 4.00e-02h  1
  77  6.4157760e+01 3.31e-04 1.74e+04  -1.0 1.22e+00   1.6 1.32e-02 5.10e-03h  1
  78  6.4325544e+01 3.22e-04 1.47e+04  -1.0 9.35e-01   2.1 2.13e-02 2.82e-02h  1
  79  6.4703808e+01 3.04e-04 1.39e+04  -1.0 5.05e-01   1.6 4.59e-02 5.48e-02h  1
iter    objective    inf_pr   inf_du lg(mu)  ||d||  lg(rg) alpha_du alpha_pr  ls
  80  6.4733741e+01 3.02e-04 1.39e+04  -1.0 4.47e-01   2.0 1.46e-02 5.70e-03h  1
  81  6.4831536e+01 2.98e-04 1.91e+04  -1.0 8.72e-01   1.5 7.36e-03 1.51e-02h  1
  82  6.5244536e+01 2.77e-04 1.69e+04  -1.0 4.22e-01   1.9 4.48e-02 6.97e-02h  1
  83  6.5294243e+01 2.75e-04 1.72e+04  -1.0 1.29e+00   1.5 3.11e-02 6.79e-03h  1
  84  6.5507125e+01 2.66e-04 1.60e+04  -1.0 5.45e-01   1.9 1.44e-02 3.35e-02h  1
  85  6.5510924e+01 2.65e-04 1.59e+04  -1.0 3.24e+01   1.4 2.48e-03 3.44e-03h  1
  86  6.5590507e+01 2.58e-04 5.70e+04  -1.0 6.21e-01   1.8 4.06e-03 2.63e-02h  1
  87  6.5917357e+01 2.47e-04 5.47e+04  -1.0 1.99e+00   1.4 1.95e-02 4.25e-02h  1
  88  6.5972504e+01 2.45e-04 5.43e+04  -1.0 5.14e-01   1.8 2.04e-02 8.41e-03h  1
  89  6.6238355e+01 2.37e-04 5.26e+04  -1.0 9.88e-01   1.3 3.32e-02 3.08e-02h  1
iter    objective    inf_pr   inf_du lg(mu)  ||d||  lg(rg) alpha_du alpha_pr  ls
  90  6.6419266e+01 2.31e-04 5.11e+04  -1.0 4.18e-01   1.7 2.42e-02 2.87e-02h  1
  91  6.6641582e+01 2.24e-04 4.96e+04  -1.0 5.00e-01   1.3 7.90e-03 2.90e-02h  1
  92  6.6840873e+01 2.17e-04 4.82e+04  -1.0 5.73e-01   1.7 2.35e-02 2.90e-02h  1
  93  6.6960057e+01 2.14e-04 4.75e+04  -1.0 1.65e+00   1.2 1.52e-02 1.47e-02h  1
  94  6.7146624e+01 2.08e-04 4.61e+04  -1.0 6.10e-01   1.6 1.01e-02 2.92e-02h  1
  95  6.7151410e+01 2.08e-04 4.60e+04  -1.0 5.15e-01   2.1 5.94e-03 1.01e-03h  1
  96  6.7441373e+01 1.99e-04 4.41e+04  -1.0 6.83e-01   1.6 8.83e-03 4.25e-02h  1
  97  6.7592245e+01 1.94e-04 4.29e+04  -1.0 5.73e-01   2.0 3.76e-02 2.69e-02h  1
  98  6.7691420e+01 1.91e-04 4.23e+04  -1.0 7.17e-01   1.5 3.38e-02 1.42e-02h  1
  99  6.7922548e+01 1.83e-04 4.06e+04  -1.0 5.75e-01   2.0 3.65e-02 4.05e-02h  1
iter    objective    inf_pr   inf_du lg(mu)  ||d||  lg(rg) alpha_du alpha_pr  ls
 100  6.7958582e+01 1.82e-04 4.03e+04  -1.0 6.14e-01   1.5 5.01e-03 5.93e-03h  1
 101  6.8104621e+01 1.77e-04 3.97e+04  -1.0 6.52e-01   1.9 3.88e-02 2.63e-02h  1
 102  6.8343082e+01 1.71e-04 3.83e+04  -1.0 8.18e-01   1.4 4.10e-02 3.42e-02h  1
 103  6.8616759e+01 1.62e-04 3.62e+04  -1.0 6.27e-01   1.9 7.80e-03 5.25e-02h  1
 104  6.8628364e+01 1.62e-04 3.61e+04  -1.0 5.13e-01   1.4 6.84e-03 2.12e-03h  1
 105  6.8794648e+01 1.57e-04 3.49e+04  -1.0 7.17e-01   1.8 4.16e-02 3.21e-02h  1
 106  6.8815627e+01 1.56e-04 3.48e+04  -1.0 6.89e-01   1.3 5.50e-03 4.30e-03h  1
 107  6.8936490e+01 1.52e-04 3.40e+04  -1.0 7.22e-01   1.8 1.76e-02 2.36e-02h  1
 108  6.9165582e+01 1.46e-04 3.26e+04  -1.0 9.61e-01   1.3 8.21e-03 3.88e-02h  1
 109  6.9182317e+01 1.46e-04 3.25e+04  -1.0 6.35e-01   1.7 1.02e-02 3.86e-03h  1
iter    objective    inf_pr   inf_du lg(mu)  ||d||  lg(rg) alpha_du alpha_pr  ls
 110  6.9213452e+01 1.45e-04 3.23e+04  -1.0 5.75e+00   1.2 1.96e-02 6.44e-03h  1
 111  6.9429132e+01 1.39e-04 3.09e+04  -1.0 8.12e-01   1.7 2.84e-02 4.24e-02h  1
 112  6.9480722e+01 1.37e-04 3.05e+04  -1.0 6.42e-01   2.1 9.63e-03 1.34e-02h  1
 113  6.9738034e+01 1.30e-04 2.89e+04  -1.0 8.28e-01   1.6 6.61e-02 5.24e-02h  1
 114  6.9749679e+01 1.29e-04 2.88e+04  -1.0 4.03e-01   2.0 1.04e-02 3.32e-03h  1
 115  6.9919880e+01 1.25e-04 2.78e+04  -1.0 8.64e-01   1.6 2.54e-02 3.65e-02h  1
 116  6.9943393e+01 1.24e-04 2.76e+04  -1.0 6.44e-01   2.0 6.96e-03 7.05e-03h  1
 117  7.0064557e+01 1.20e-04 2.68e+04  -1.0 8.65e-01   1.5 2.46e-02 2.67e-02h  1
 118  7.0144840e+01 1.18e-04 2.62e+04  -1.0 6.49e-01   1.9 4.64e-02 2.36e-02h  1
 119  7.0206983e+01 1.16e-04 2.58e+04  -1.0 4.82e-01   1.5 8.11e-03 1.48e-02h  1
iter    objective    inf_pr   inf_du lg(mu)  ||d||  lg(rg) alpha_du alpha_pr  ls
 120  7.0381749e+01 1.10e-04 2.45e+04  -1.0 4.97e-01   1.9 3.46e-02 5.08e-02h  1
 121  7.0560542e+01 1.05e-04 2.34e+04  -1.0 9.63e-01   1.4 1.71e-02 4.32e-02h  1
 122  7.0570558e+01 1.05e-04 2.34e+04  -1.0 7.08e-01   1.8 1.08e-02 3.64e-03h  1
 123  7.0612204e+01 1.04e-04 2.31e+04  -1.0 8.87e-01   1.4 2.23e-02 1.08e-02h  1
 124  7.0764734e+01 9.81e-05 2.19e+04  -1.0 7.53e-01   1.8 4.41e-03 5.31e-02h  1
 125  7.0848574e+01 9.59e-05 2.14e+04  -1.0 9.74e-01   1.3 2.31e-02 2.31e-02h  1
 126  7.0962089e+01 9.20e-05 2.05e+04  -1.0 7.90e-01   1.7 1.62e-02 4.10e-02h  1
 127  7.0972836e+01 9.16e-05 2.04e+04  -1.0 7.57e-01   1.2 8.91e-03 3.72e-03h  1
 128  7.1050337e+01 8.86e-05 2.71e+04  -1.0 8.23e-01   1.7 4.25e-03 3.25e-02h  1
 129  7.1064614e+01 8.82e-05 2.71e+04  -1.0 9.65e-01   1.2 9.25e-03 4.92e-03h  1
iter    objective    inf_pr   inf_du lg(mu)  ||d||  lg(rg) alpha_du alpha_pr  ls
 130  7.1115925e+01 8.65e-05 2.67e+04  -1.0 9.10e-01   1.6 3.08e-02 1.98e-02h  1
 131  7.1177270e+01 8.47e-05 2.59e+04  -1.0 1.03e+00   1.1 1.15e-02 1.99e-02h  1
 132  7.1236959e+01 8.27e-05 2.52e+04  -1.0 9.03e-01   1.6 1.94e-02 2.37e-02h  1
 133  7.1241748e+01 8.26e-05 2.53e+04  -1.0 1.07e+00   1.1 4.78e-03 2.01e-03h  1
 134  7.1439742e+01 7.79e-05 2.36e+04  -1.0 1.20e+00   0.6 5.14e-02 5.68e-02h  1
 135  7.1442808e+01 7.77e-05 2.66e+04  -1.0 8.81e-01   1.0 9.52e-03 1.55e-03h  1
 136  7.1513198e+01 7.52e-05 2.25e+04  -1.0 9.53e-01   1.5 1.21e-02 3.27e-02h  1
 137  7.1515522e+01 7.51e-05 2.25e+04  -1.0 6.71e+00   1.0 5.84e-03 1.65e-03h  1
 138  7.1579519e+01 7.28e-05 2.18e+04  -1.0 1.03e+00   1.4 5.24e-02 3.05e-02h  1
 139  7.1658466e+01 7.05e-05 2.11e+04  -1.0 1.15e+00   0.9 3.12e-02 3.13e-02h  1
iter    objective    inf_pr   inf_du lg(mu)  ||d||  lg(rg) alpha_du alpha_pr  ls
 140  7.1667276e+01 7.01e-05 2.10e+04  -1.0 8.85e-01   1.4 4.98e-03 5.93e-03h  1
 141  7.1727911e+01 6.84e-05 2.05e+04  -1.0 2.64e+00   0.9 1.51e-02 2.40e-02h  1
 142  7.1734584e+01 6.81e-05 2.04e+04  -1.0 4.46e-01   1.3 7.56e-03 5.01e-03h  1
 143  7.1762459e+01 6.64e-05 1.99e+04  -1.0 8.81e-01   1.7 8.90e-03 2.50e-02h  1
 144  7.1870921e+01 6.20e-05 1.86e+04  -1.0 1.08e+00   1.3 2.91e-02 6.53e-02h  1
 145  7.1881963e+01 6.11e-05 1.83e+04  -1.0 7.14e-01   1.7 1.98e-02 1.55e-02h  1
 146  7.1925397e+01 5.88e-05 1.82e+04  -1.0 1.08e+00   1.2 1.03e-02 3.78e-02h  1
 147  7.1925644e+01 5.87e-05 1.76e+04  -1.0 7.11e-01   1.6 8.38e-03 1.04e-03h  1
 148  7.1968568e+01 5.64e-05 2.13e+04  -1.0 1.07e+00   1.2 9.44e-03 3.94e-02h  1
 149  7.1980027e+01 5.55e-05 1.76e+04  -1.0 7.77e-01   1.6 3.54e-02 1.61e-02h  1
iter    objective    inf_pr   inf_du lg(mu)  ||d||  lg(rg) alpha_du alpha_pr  ls
 150  7.1996191e+01 5.46e-05 1.74e+04  -1.0 5.79e-01   1.1 1.51e-02 1.52e-02h  1
 151  7.2006244e+01 5.38e-05 1.81e+04  -1.0 9.21e-01   1.5 9.94e-03 1.59e-02h  1
 152  7.2042772e+01 5.15e-05 2.37e+04  -1.0 1.06e+00   1.1 6.15e-03 4.13e-02h  1
 153  7.2060331e+01 4.97e-05 2.47e+04  -1.0 9.08e-01   1.5 2.55e-02 3.57e-02h  1
 154  7.2060834e+01 4.97e-05 2.40e+04  -1.0 1.32e+00   1.0 4.35e-03 9.01e-04h  1
 155  7.2090270e+01 4.91e-05 2.44e+04  -1.0 5.64e+00   0.5 8.84e-03 1.24e-02h  1
 156  7.2152532e+01 4.71e-05 2.48e+04  -1.0 1.21e+00   1.0 3.17e-02 3.88e-02h  1
 157  7.2191551e+01 4.52e-05 2.53e+04  -1.0 1.03e+00   1.4 3.30e-02 4.03e-02h  1
 158  7.2196059e+01 4.51e-05 2.22e+04  -1.0 8.21e-01   0.9 1.87e-02 4.21e-03h  1
 159  7.2218548e+01 4.40e-05 2.14e+04  -1.0 1.02e+00   1.3 2.54e-02 2.43e-02h  1
iter    objective    inf_pr   inf_du lg(mu)  ||d||  lg(rg) alpha_du alpha_pr  ls
 160  7.2222544e+01 4.37e-05 2.14e+04  -1.0 9.43e-01   0.9 4.79e-03 5.13e-03h  1
 161  7.2272090e+01 4.15e-05 2.31e+04  -1.0 9.78e-01   1.3 3.87e-02 5.17e-02h  1
 162  7.2289480e+01 4.08e-05 2.43e+04  -1.0 7.76e-01   0.8 8.65e-03 1.54e-02h  1
 163  7.2308394e+01 3.99e-05 2.55e+04  -1.0 4.75e-01   1.2 1.41e-02 2.18e-02h  1
 164  7.2375610e+01 3.77e-05 3.34e+04  -1.0 9.10e-01   0.8 1.73e-02 5.67e-02h  1
 165  7.2381777e+01 3.72e-05 3.12e+04  -1.0 1.07e+00   1.2 1.98e-02 1.23e-02h  1
 166  7.2393790e+01 3.67e-05 2.96e+04  -1.0 1.12e+00   0.7 1.81e-02 1.35e-02h  1
 167  7.2411206e+01 3.48e-05 3.96e+04  -1.0 9.87e-01   1.1 6.65e-03 5.16e-02h  1
 168  7.2418592e+01 3.45e-05 3.55e+04  -1.0 1.14e+00   0.7 2.39e-02 1.01e-02h  1
 169  7.2418179e+01 3.44e-05 3.50e+04  -1.0 1.79e+00   1.1 2.74e-03 1.27e-03h  1
iter    objective    inf_pr   inf_du lg(mu)  ||d||  lg(rg) alpha_du alpha_pr  ls
 170  7.2480455e+01 3.32e-05 3.43e+04  -1.0 1.13e+00   0.6 3.34e-02 3.55e-02h  1
 171  7.2488583e+01 3.29e-05 2.95e+04  -1.0 6.25e-01   1.0 2.39e-02 7.66e-03h  1
 172  7.2565091e+01 3.15e-05 3.87e+04  -1.0 8.74e-01   0.5 7.52e-03 4.44e-02h  1
 173  7.2573591e+01 3.12e-05 3.81e+04  -1.0 1.01e+00   1.0 9.22e-03 8.37e-03h  1
 174  7.2620607e+01 3.08e-05 2.59e+04  -1.0 1.89e+00   0.5 6.17e-02 2.41e-02h  2
 175  7.2698399e+01 3.07e-05 2.48e+04  -1.0 1.60e+00    -  3.70e-02 3.64e-02h  1
 176  7.2768062e+01 3.15e-05 2.35e+04  -1.0 1.16e+00   0.9 5.44e-02 5.46e-02h  1
 177  7.2796497e+01 3.12e-05 2.47e+04  -1.0 5.30e+00   0.4 1.08e-02 1.55e-02h  2
 178  7.2834976e+01 3.08e-05 2.28e+04  -1.0 3.52e+00  -0.0 2.74e-02 2.36e-02h  1
 179  7.2873141e+01 3.04e-05 2.27e+04  -1.0 1.31e+00    -  4.45e-02 4.71e-02h  1
iter    objective    inf_pr   inf_du lg(mu)  ||d||  lg(rg) alpha_du alpha_pr  ls
 180  7.2898671e+01 2.97e-05 3.49e+04  -1.0 9.62e-01    -  1.10e-02 4.78e-02h  1
 181  7.2949606e+01 2.88e-05 4.19e+04  -1.0 1.43e+00    -  2.79e-02 5.09e-02h  1
 182  7.2962429e+01 2.84e-05 2.99e+04  -1.0 1.33e+00    -  4.38e-02 1.52e-02h  1
 183  7.2958863e+01 2.83e-05 2.82e+04  -1.0 7.32e-01    -  5.89e-03 1.85e-03h  1
 184  7.3064120e+01 2.84e-05 4.17e+04  -1.0 4.48e-01    -  5.29e-03 4.15e-02h  1
 185  7.3200188e+01 3.17e-05 5.56e+04  -1.0 5.46e-01    -  2.15e-02 6.04e-02h  1
 186  7.3253695e+01 3.20e-05 5.83e+04  -1.0 5.35e-01    -  2.03e-02 3.02e-02h  1
 187  7.3271634e+01 3.18e-05 5.88e+04  -1.0 4.09e-01    -  1.36e-02 1.69e-02h  1
 188  7.3353374e+01 3.34e-05 7.52e+04  -1.0 4.91e-01    -  1.01e-02 5.16e-02h  1
 189  7.3355957e+01 3.33e-05 7.12e+04  -1.0 3.83e-01    -  1.18e-02 4.30e-03h  1
iter    objective    inf_pr   inf_du lg(mu)  ||d||  lg(rg) alpha_du alpha_pr  ls
 190  7.3409997e+01 3.36e-05 5.24e+04  -1.0 4.78e-01    -  6.89e-02 3.60e-02h  1
 191  7.3451365e+01 3.35e-05 4.88e+04  -1.0 7.38e-01    -  3.31e-02 2.91e-02h  1
 192  7.3480876e+01 3.32e-05 4.61e+04  -1.0 3.40e+00    -  1.92e-02 1.53e-02h  3
 193  7.3510502e+01 3.29e-05 2.25e+04  -1.0 2.09e+00   0.4 6.16e-02 1.87e-02h  3
 194  7.3563128e+01 3.39e-05 1.14e+04  -1.0 4.13e-01   0.8 7.85e-02 5.63e-02h  2
 195  7.3620511e+01 3.39e-05 1.48e+04  -1.0 7.80e-01   0.3 3.18e-02 4.19e-02h  2
 196  7.3660005e+01 3.35e-05 6.50e+03  -1.0 2.46e+00    -  5.60e-02 2.06e-02h  2
 197  7.3741988e+01 3.34e-05 1.48e+04  -1.0 7.06e-01    -  1.32e-02 4.85e-02h  1
 198  7.3819221e+01 3.30e-05 1.69e+04  -1.0 6.95e-01    -  3.75e-02 4.19e-02h  1
 199  7.3891986e+01 3.26e-05 2.41e+04  -1.0 4.15e-01    -  2.68e-02 3.89e-02h  2
iter    objective    inf_pr   inf_du lg(mu)  ||d||  lg(rg) alpha_du alpha_pr  ls
 200  7.3945277e+01 3.21e-05 2.02e+04  -1.0 5.26e-01    -  3.24e-02 2.76e-02h  3
 201  7.3995041e+01 3.16e-05 2.82e+04  -1.0 8.80e-01    -  9.46e-02 2.50e-02h  3
 202  7.4053783e+01 3.12e-05 4.55e+04  -1.0 4.95e-01   0.8 8.26e-02 5.56e-02h  3
 203  7.4110837e+01 3.05e-05 9.40e+04  -1.0 1.77e+00   0.3 1.01e-01 3.31e-02h  3
 204  7.4212214e+01 3.28e-05 7.61e+04  -1.0 3.03e-01   0.7 8.56e-02 9.72e-02h  2
 205  7.4235088e+01 3.36e-05 9.29e+04  -1.0 1.17e+01    -  2.75e-02 6.35e-03h  2
 206  7.4295450e+01 7.00e-05 8.22e+04  -1.0 2.83e-01   1.1 1.31e-01 3.09e-01H  1
 207  7.4361155e+01 6.88e-05 1.75e+05  -1.0 4.21e-01   0.7 2.41e-02 1.15e-01h  1
 208  7.4364401e+01 6.86e-05 1.65e+05  -1.0 4.13e+00   0.2 1.12e-02 3.93e-03h  1
 209  7.4451720e+01 6.60e-05 2.23e+05  -1.0 8.05e-01   0.6 6.35e-03 6.05e-02h  2
iter    objective    inf_pr   inf_du lg(mu)  ||d||  lg(rg) alpha_du alpha_pr  ls
 210  7.4489983e+01 6.41e-05 1.76e+05  -1.0 2.60e+00   0.1 6.58e-02 3.60e-02h  2
 211  7.4534157e+01 6.13e-05 1.07e+05  -1.0 3.05e-01   0.6 1.47e-01 1.10e-01h  1
 212  7.4562638e+01 5.94e-05 1.26e+05  -1.0 1.39e+00   0.1 2.07e-02 3.70e-02h  3
 213  7.4589165e+01 5.87e-05 6.96e+04  -1.0 6.49e+00  -0.4 4.89e-02 1.20e-02h  2
 214  7.4609946e+01 5.91e-05 3.24e+05  -1.0 1.83e-01   0.9 1.43e-01 3.28e-01H  1
 215  7.4633414e+01 5.27e-05 4.35e+05  -1.0 2.71e-01   0.5 7.47e-02 1.56e-01h  1
 216  7.4629796e+01 5.24e-05 3.98e+05  -1.0 3.02e-01    -  2.09e-02 5.27e-03h  1
 217  7.4703542e+01 4.86e-05 4.26e+05  -1.0 9.36e-01    -  5.68e-02 8.45e-02h  2
 218  7.4784925e+01 4.27e-05 4.60e+05  -1.0 2.05e-01    -  1.06e-01 1.47e-01h  2
 219  7.4881752e+01 4.10e-05 2.45e+05  -1.0 2.63e-01    -  2.69e-01 2.25e-01H  1
iter    objective    inf_pr   inf_du lg(mu)  ||d||  lg(rg) alpha_du alpha_pr  ls
 220  7.4955428e+01 4.60e-05 3.65e+05  -1.0 2.40e-01    -  1.53e-01 2.17e-01h  2
 221  7.5016465e+01 4.11e-05 2.40e+05  -1.0 1.56e-01    -  4.42e-01 2.71e-01h  1
 222  7.5065390e+01 1.65e-05 2.50e+06  -1.0 1.40e-01    -  1.04e-01 1.00e+00H  1
 223  7.5115654e+01 8.09e-06 1.64e+06  -1.0 7.63e-02    -  6.76e-01 1.00e+00f  1
 224  7.5115454e+01 2.60e-06 1.03e+01  -1.0 4.95e-02    -  1.00e+00 1.00e+00f  1
 225  7.5015578e+01 1.02e-05 3.07e+06  -3.8 9.15e-02    -  6.92e-01 1.00e+00f  1
 226  7.4928591e+01 3.36e-06 8.24e+05  -3.8 7.40e-02    -  7.32e-01 1.00e+00f  1
 227  7.4697951e+01 2.57e-05 3.87e+05  -3.8 2.96e-01    -  5.30e-01 8.09e-01f  1
 228  7.4412693e+01 4.37e-05 2.05e+05  -3.8 1.89e-01    -  4.71e-01 9.89e-01f  1
 229  7.4200976e+01 5.09e-05 1.04e+05  -3.8 2.94e-01    -  4.90e-01 4.79e-01f  1
iter    objective    inf_pr   inf_du lg(mu)  ||d||  lg(rg) alpha_du alpha_pr  ls
 230  7.3981950e+01 6.59e-05 7.99e+04  -3.8 4.65e-01    -  2.35e-01 2.89e-01f  1
 231  7.3843604e+01 6.26e-05 5.63e+04  -3.8 3.73e-01    -  2.95e-01 1.57e-01f  1
 232  7.3677245e+01 5.15e-05 4.09e+04  -3.8 2.80e-01    -  2.73e-01 1.67e-01f  1
 233  7.3637122e+01 1.42e-04 3.62e+04  -3.8 5.54e-01    -  1.15e-01 6.06e-01h  1
 234  7.3299444e+01 9.44e-05 2.90e+04  -3.8 1.71e-01    -  2.00e-01 3.68e-01f  1
 235  7.3213518e+01 8.40e-05 2.51e+04  -3.8 1.48e-01    -  1.33e-01 1.15e-01f  1
 236  7.3065792e+01 6.83e-05 2.33e+04  -3.8 1.40e-01    -  7.33e-02 1.94e-01f  1
 237  7.2938075e+01 4.78e-05 2.19e+04  -3.8 6.93e-02    -  6.02e-02 3.00e-01f  1
 238  7.2872150e+01 4.04e-05 1.96e+04  -3.8 9.76e-02    -  1.04e-01 1.55e-01f  1
 239  7.2709712e+01 2.18e-05 1.44e+04  -3.8 6.67e-02    -  2.63e-01 4.63e-01f  1
iter    objective    inf_pr   inf_du lg(mu)  ||d||  lg(rg) alpha_du alpha_pr  ls
 240  7.2638688e+01 5.45e-06 9.27e+03  -3.8 5.10e-02    -  3.58e-01 1.00e+00f  1
 241  7.2639930e+01 6.62e-06 7.34e+03  -3.8 3.98e-01    -  2.09e-01 9.59e-02h  1
 242  7.2648609e+01 1.61e-04 3.87e+03  -3.8 3.62e-01    -  4.72e-01 9.62e-01f  1
 243  7.2648716e+01 8.98e-05 1.87e+00  -3.8 1.69e-01    -  1.00e+00 5.00e-01f  2
 244  7.2646433e+01 5.62e-06 7.36e-02  -3.8 3.31e-02    -  1.00e+00 9.50e-01h  1
 245  7.2645802e+01 6.64e-07 9.54e-03  -3.8 2.22e-02    -  1.00e+00 1.00e+00f  1
 246  7.2614840e+01 1.54e-06 3.87e+03  -5.7 1.19e-01    -  5.47e-01 2.87e-01f  1
 247  7.2589460e+01 8.13e-07 2.09e+03  -5.7 1.34e-01    -  4.82e-01 4.74e-01f  1
 248  7.2584204e+01 1.10e-05 6.00e+02  -5.7 2.77e-01    -  5.84e-02 3.04e-01h  1
 249  7.2582121e+01 8.16e-06 2.73e+03  -5.7 6.59e-03  -0.0 9.58e-01 2.61e-01f  1
iter    objective    inf_pr   inf_du lg(mu)  ||d||  lg(rg) alpha_du alpha_pr  ls
 250  7.2579876e+01 3.99e-06 1.35e+03  -5.7 1.93e-02  -0.5 1.00e+00 5.29e-01f  1
 251  7.2578672e+01 3.78e-06 5.99e+02  -5.7 6.54e-02  -1.0 1.00e+00 5.56e-01f  1
 252  7.2575989e+01 5.44e-05 2.81e+02  -5.7 3.50e-01  -1.4 3.39e-01 5.31e-01f  1
 253  7.2573857e+01 4.87e-05 1.80e+02  -5.7 2.74e-01  -1.0 1.00e+00 3.59e-01f  1
 254  7.2573833e+01 4.55e-05 1.68e+02  -5.7 9.65e-01    -  7.66e-01 6.52e-02f  1
 255  7.2573211e+01 1.40e-05 5.20e+01  -5.7 1.13e-02    -  1.00e+00 6.91e-01h  1
 256  7.2572981e+01 7.42e-09 4.67e-04  -5.7 2.79e-03    -  1.00e+00 1.00e+00h  1
 257  7.2572982e+01 1.28e-13 2.22e-09  -5.7 1.88e-05    -  1.00e+00 1.00e+00h  1
 258  7.2572833e+01 2.27e-09 5.62e+01  -8.6 3.65e-03    -  9.85e-01 6.81e-01f  1
 259  7.2572787e+01 9.84e-10 1.30e+01  -8.6 1.18e-03    -  1.00e+00 7.79e-01f  1
iter    objective    inf_pr   inf_du lg(mu)  ||d||  lg(rg) alpha_du alpha_pr  ls
 260  7.2572778e+01 3.25e-08 4.18e+00  -8.6 2.61e-04    -  8.64e-01 6.78e-01f  1
 261  7.2572774e+01 7.39e-12 2.06e-05  -8.6 8.40e-05    -  1.00e+00 1.00e+00f  1
 262  7.2572774e+01 4.13e-14 7.35e-11  -8.6 1.81e-09    -  1.00e+00 1.00e+00h  1

Number of Iterations....: 262

                                   (scaled)                 (unscaled)
Objective...............:   7.2572774258233238e+01    7.2572774258233238e+01
Dual infeasibility......:   7.3548112045074276e-11    7.3548112045074276e-11
Constraint violation....:   4.1299429154317835e-14    4.1299429154317835e-14
Variable bound violation:   7.4202574218093222e-09    7.4202574218093222e-09
Complementarity.........:   2.5059150806497032e-09    2.5059150806497032e-09
Overall NLP error.......:   2.5059150806497032e-09    2.5059150806497032e-09


Number of objective function evaluations             = 333
Number of objective gradient evaluations             = 263
Number of equality constraint evaluations            = 333
Number of inequality constraint evaluations          = 333
Number of equality constraint Jacobian evaluations   = 263
Number of inequality constraint Jacobian evaluations = 263
Number of Lagrangian Hessian evaluations             = 262
Total seconds in IPOPT (w/o function evaluations)    =    340.686
Total seconds in NLP function evaluations            =     23.374


Timing Statistics:

OverallAlgorithm....................:   1500.102 (sys:   1340.231 wall:    364.060)
 PrintProblemStatistics.............:      0.017 (sys:      0.011 wall:      0.002)
 InitializeIterates.................:      3.795 (sys:      2.282 wall:      1.923)
 UpdateHessian......................:    110.740 (sys:    109.266 wall:     14.012)
 OutputIteration....................:      0.736 (sys:      0.741 wall:      0.101)
 UpdateBarrierParameter.............:      0.795 (sys:      0.735 wall:      0.105)
 ComputeSearchDirection.............:   1266.638 (sys:   1111.898 wall:    330.375)
 ComputeAcceptableTrialPoint........:     75.939 (sys:     73.606 wall:     11.977)
 AcceptTrialPoint...................:      1.105 (sys:      0.971 wall:      0.140)
 CheckConvergence...................:     40.213 (sys:     40.629 wall:      5.413)
PDSystemSolverTotal.................:   1287.206 (sys:   1130.671 wall:    334.580)
 PDSystemSolverSolveOnce............:   1259.671 (sys:   1103.493 wall:    330.738)
 ComputeResiduals...................:     21.111 (sys:     20.801 wall:      3.016)
 StdAugSystemSolverMultiSolve.......:   1260.169 (sys:   1102.886 wall:    331.948)
 LinearSystemScaling................:      0.000 (sys:      0.000 wall:      0.000)
 LinearSystemSymbolicFactorization..:      1.691 (sys:      0.638 wall:      1.252)
 LinearSystemFactorization..........:      0.000 (sys:      0.000 wall:      0.000)
 LinearSystemBackSolve..............:    547.607 (sys:    538.160 wall:     79.551)
 LinearSystemStructureConverter.....:      0.000 (sys:      0.000 wall:      0.000)
  LinearSystemStructureConverterInit:      0.000 (sys:      0.000 wall:      0.000)
QualityFunctionSearch...............:      0.000 (sys:      0.000 wall:      0.000)
TryCorrector........................:      0.000 (sys:      0.000 wall:      0.000)
Task1...............................:      0.000 (sys:      0.000 wall:      0.000)
Task2...............................:      0.000 (sys:      0.000 wall:      0.000)
Task3...............................:      0.000 (sys:      0.000 wall:      0.000)
Task4...............................:      0.000 (sys:      0.000 wall:      0.000)
Task5...............................:      0.000 (sys:      0.000 wall:      0.000)
Task6...............................:      0.000 (sys:      0.000 wall:      0.000)
Function Evaluations................:    178.123 (sys:    176.374 wall:     23.374)
 Objective function.................:      0.039 (sys:      0.034 wall:      0.005)
 Objective function gradient........:      0.609 (sys:      0.542 wall:      0.077)
 Equality constraints...............:     36.455 (sys:     36.024 wall:      5.206)
 Inequality constraints.............:      0.303 (sys:      0.224 wall:      0.035)
 Equality constraint Jacobian.......:      1.826 (sys:      1.978 wall:      0.256)
 Inequality constraint Jacobian.....:     28.248 (sys:     28.382 wall:      3.794)
 Lagrangian Hessian.................:    110.642 (sys:    109.189 wall:     14.001)

EXIT: Optimal Solution Found.
